(set-logic ALL)
(declare-const input_string_VAR String)
(assert (< 1 (str.len input_string_VAR)))
(assert (> (str.len input_string_VAR) 1))
(assert (> (str.len input_string_VAR) 0))
(assert (not (= (str.at input_string_VAR 1) (str.at input_string_VAR 0))))
(check-sat)
(get-value (input_string_VAR))
